Maximize
  30 x_traditional_machine + 40 x_modern_machine
Subject To
  c1: 20 x_traditional_machine + 15 x_modern_machine <= 9000
  c2: 10 x_traditional_machine + 15 x_modern_machine <= 6000
  c3: x_traditional_machine + x_modern_machine <= 500
Integer
  x_traditional_machine x_modern_machine
End